results/x-long/X-n129-k18.vrp_seed-36.out
28948	1135
