results/x-long/X-n129-k18.vrp_seed-36.vrp.sol
Route #1: 78 50 52 27 113 88 86
Route #2: 3
Route #3: 83 109 51 120 8 37
Route #4: 90 44 1 23 59 18 64
Route #5: 24 125 31 97 69 42 99 14 70 53
Route #6: 67 30 43 84 25 39 93
Route #7: 74 117 115 122 106 5 119
Route #8: 47 127 28 118 38
Route #9: 20 63 9 7 124 82
Route #10: 126 11 85 61 41 55 40 58 101 17 110
Route #11: 87 121 94 111 4 98 68 80
Route #12: 62 56 13 57 35 77 60
Route #13: 54 22 46 33 21 34 2 48 6 19
Route #14: 123 26 108 100 72 112 102
Route #15: 15 66 89 103 75 91
Route #16: 16 12 96 95 116 92 49 73 114 32
Route #17: 107 65 105 76 79 10 104 71
Route #18: 45 29 36 81 128
Cost 28948.000000